NAME: rue_15_5
TYPE: TSP
DIMENSION: 15
EDGE_WEIGHT_TYPE: EUC_2D
NODE_COORD_SECTION
1 13 20
2 5 4
3 21 31
4 36 2
5 34 13
6 20 35
7 24 10
8 19 29
9 20 21
10 24 9
11 7 7
12 24 38
13 26 9
14 17 25
15 32 14

